3
20
5069
[[883,717,189,287,488,522,581,502,652,651,583,343,387,707,518,553,138,595,652,759],
 [117,283,811,713,512,478,419,498,348,349,417,657,613,293,482,447,862,405,348,241],
 [ 76, 94, 68, 48, 15, 20, 45, 53, 83, 60, 19, 39, 60, 11, 59, 27, 14, 91, 57,  7]]
[841,392,798, 57, 36,265,218,261,587,764,160,927,435,306, 30,565,822,916,912,847]